NAME : XML100_3324_03
DIMENSION : 101
NB_CLUSTERS : 4
CLUSTERING_ALG : KMeans
CLUSTERING_PARAMS : k(3)
CLUSTERS
1 0
2 2 6 8 9 11 13 16 17 18 21 22 24 27 29 30 32 34 35 43 44 45 47 49 53 54 56 57 60 66 71 76 86 87 88 89 90 91 97 99
3 7 14 25 28 33 39 46 48 58 59 63 69 73 75 77 83 85 98
4 1 3 4 5 10 12 15 19 20 23 26 31 36 37 38 40 41 42 50 51 52 55 61 62 64 65 67 68 70 72 74 78 79 80 81 82 84 92 93 94 95 96 100
EOF